100 10
94 42
78 55
65 36
74 52
99 98
63 43
19 15
58 44
98 27
19 45
36 55
37 14
39 68
18 67
70 22
14 100
33 8
89 38
19 34
9 50
98 50
35 96
85 10
60 54
49 44
63 47
52 48
76 55
64 52
55 49
92 85
97 89
41 32
79 100
43 99
51 88
18 23
85 22
19 76
34 56
57 80
83 26
100 78
2 71
8 95
9 50
78 95
94 85
2 51
38 36
67 9
57 10
66 83
87 19
96 45
76 26
63 23
35 97
51 97
94 65
39 94
32 57
81 53
14 90
80 66
42 33
33 98
96 64
89 53
16 97
31 31
28 87
47 31
34 56
42 40
63 69
90 40
63 98
22 9
12 98
26 34
23 18
98 65
27 19
64 49
12 58
43 65
42 6
43 46
74 67
4 26
10 40
23 85
47 27
70 62
11 23
88 33
49 15
60 41
10 32
655 782
540 640
386 467
542 625
468 552
439 545
491 565
391 441
485 590
621 728
